(set-info :Origin "This instance was generated by: BanditFuzz-- an RL fuzzer for SMT solvers" )
(set-info :Author "Joe Scott, Fed Mora, Vijay Ganesh" )
(set-info :Contact "Joe Scott, joseph.scott@uwaterloo.ca")
(set-logic QF_BV)
(declare-const bool_0 Bool)
(declare-const bool_1 Bool)
(declare-const bool_2 Bool)
(declare-const bool_3 Bool)
(declare-const bool_4 Bool)
(declare-const bv_0 (_ BitVec 32))
(declare-const bv_1 (_ BitVec 32))
(declare-const bv_2 (_ BitVec 32))
(declare-const bv_3 (_ BitVec 32))
(declare-const bv_4 (_ BitVec 32))
(assert (bvule (bvsdiv (bvadd #x5f1d41e6  bv_0) (bvor #xe1d2d209  #x38952880 )) (bvxnor (bvsdiv #x58fdfcd7  bv_2) (bvlshr #xa0b5790d  #xd99a9db0 ))))
(assert (=> (not (bvuge #xedb9542d  bv_4)) (bvugt (bvudiv #x3d5d176e  #x76263141 ) (bvnor #xa433da24  bv_4))))
(assert (and (bvsle (bvnand bv_4 #x3bbec56c ) (bvnor #xd52c3663  #x7034db8f )) (bvule (bvmul #x3a6c013a  #x1836fec9 ) (bvashr #x1c7e741a  #xc43b92af ))))
(assert (bvsgt (bvxnor (bvlshr #x9c41b27f  bv_3) (bvor #x25c248af  bv_4)) (bvmul (bvxnor bv_3 bv_3) (bvxor #xd148991d  bv_1))))
(assert (xor (bvugt (bvshl bv_2 bv_2) (bvshl #xb0930df0  bv_3)) (xor (bvslt bv_4 bv_1) (=> false bool_4))))
(check-sat)
(exit)
